NAME : block_09.238820.tour
COMMENT : Length = 238820
COMMENT : Found by LKH-3 [Keld Helsgaun] Wed Apr 22 15:45:08 2026
TYPE : TOUR
DIMENSION : 69
TOUR_SECTION
23
14
15
7
8
16
25
24
33
41
49
56
62
63
67
68
64
58
57
50
42
34
35
26
17
9
3
4
10
18
27
36
44
43
51
52
59
65
66
60
53
45
46
38
37
28
29
20
19
11
5
6
12
13
21
30
39
47
55
54
61
2
69
1
48
40
32
31
22
-1
EOF
